
Gurobi 12.0.2 (win64) logging started Sat Jun  7 11:43:40 2025

Set parameter LogFile to value "C:\Ioana\_uni\honours\slp\algorithm\Main_files\results\others\prox_tubules_new_1\Task_006_Sample004_irr_gurobi.log"
Gurobi Optimizer version 12.0.2 build v12.0.2rc0 (win64 - Windows 11.0 (26100.2))

CPU model: Intel(R) Core(TM) Ultra 5 125H, instruction set [SSE2|AVX|AVX2]
Thread count: 14 physical cores, 18 logical processors, using up to 18 threads

Non-default parameters:
TimeLimit  2200

Optimize a model with 47658 rows, 34797 columns and 147844 nonzeros
Model fingerprint: 0x026bc9c8
Variable types: 17403 continuous, 17394 integer (17394 binary)
Coefficient statistics:
  Matrix range     [1e-04, 8e+04]
  Objective range  [1e-04, 3e+00]
  Bounds range     [1e+00, 1e+03]
  RHS range        [1e+00, 1e+00]
Presolve removed 31203 rows and 21830 columns
Presolve time: 0.37s
Presolved: 16455 rows, 12967 columns, 54695 nonzeros
Variable types: 6421 continuous, 6546 integer (6546 binary)

Root relaxation: objective 4.786553e-03, 7464 iterations, 1.00 seconds (1.80 work units)

    Nodes    |    Current Node    |     Objective Bounds      |     Work
 Expl Unexpl |  Obj  Depth IntInf | Incumbent    BestBd   Gap | It/Node Time

     0     0    0.00479    0   68          -    0.00479      -     -    1s
H    0     0                      10.9710782    0.00479   100%     -    1s
H    0     0                       2.3652491    0.00479   100%     -    1s
H    0     0                       2.3574472    0.00479   100%     -    1s
     0     0    0.04159    0   71    2.35745    0.04159  98.2%     -    2s
     0     0    0.07840    0   44    2.35745    0.07840  96.7%     -    2s
     0     0    0.12546    0   84    2.35745    0.12546  94.7%     -    2s
     0     0    0.12754    0   79    2.35745    0.12754  94.6%     -    2s
     0     0    0.15348    0   91    2.35745    0.15348  93.5%     -    3s
     0     0    0.16287    0   87    2.35745    0.16287  93.1%     -    3s
H    0     0                       1.5040234    0.87719  41.7%     -    3s
     0     0    0.87719    0   71    1.50402    0.87719  41.7%     -    3s
     0     0    0.87719    0   64    1.50402    0.87719  41.7%     -    3s
H    0     0                       1.5008774    0.87719  41.6%     -    3s
     0     0    0.87719    0  114    1.50088    0.87719  41.6%     -    3s
     0     0    0.87719    0   71    1.50088    0.87719  41.6%     -    3s
     0     0    0.87719    0   54    1.50088    0.87719  41.6%     -    3s
     0     0    0.87719    0   58    1.50088    0.87719  41.6%     -    4s
     0     0    0.87719    0   74    1.50088    0.87719  41.6%     -    4s
H    0     0                       1.4962991    0.87719  41.4%     -    4s
     0     0    0.88198    0  107    1.49630    0.88198  41.1%     -    4s
     0     0    0.88198    0   70    1.49630    0.88198  41.1%     -    4s
     0     0    0.88483    0   84    1.49630    0.88483  40.9%     -    4s
     0     0    0.88506    0   84    1.49630    0.88506  40.8%     -    4s
     0     0    0.88863    0   39    1.49630    0.88863  40.6%     -    5s
     0     0    0.88863    0   55    1.49630    0.88863  40.6%     -    6s
     0     0    1.12009    0   55    1.49630    1.12009  25.1%     -    6s
     0     0    1.19031    0   61    1.49630    1.19031  20.4%     -    6s
     0     0    1.19332    0   50    1.49630    1.19332  20.2%     -    6s
     0     0    1.19593    0   55    1.49630    1.19593  20.1%     -    6s
     0     0    1.19773    0   62    1.49630    1.19773  20.0%     -    6s
     0     0    1.20364    0   68    1.49630    1.20364  19.6%     -    6s
     0     0    1.21784    0   64    1.49630    1.21784  18.6%     -    6s
     0     0    1.22128    0   77    1.49630    1.22128  18.4%     -    6s
     0     0    1.26059    0   45    1.49630    1.26059  15.8%     -    6s
     0     0    1.26059    0   41    1.49630    1.26059  15.8%     -    6s
     0     0    1.26059    0   39    1.49630    1.26059  15.8%     -    6s
     0     0    1.26059    0   39    1.49630    1.26059  15.8%     -    6s
     0     0    1.27740    0   42    1.49630    1.27740  14.6%     -    6s
     0     0    1.28180    0   45    1.49630    1.28180  14.3%     -    6s
     0     0    1.28180    0   33    1.49630    1.28180  14.3%     -    6s
     0     0    1.40547    0   34    1.49630    1.40547  6.07%     -    7s
     0     0    1.41667    0   36    1.49630    1.41667  5.32%     -    7s
     0     0    1.41928    0   34    1.49630    1.41928  5.15%     -    7s
     0     0    1.45028    0   31    1.49630    1.45028  3.08%     -    7s
     0     0    1.45029    0   33    1.49630    1.45029  3.07%     -    7s
     0     0    1.47276    0   20    1.49630    1.47276  1.57%     -    7s
     0     0    1.47806    0   12    1.49630    1.47806  1.22%     -    7s
     0     0    1.48666    0   10    1.49630    1.48666  0.64%     -    7s
     0     0    1.48666    0   15    1.49630    1.48666  0.64%     -    7s
     0     0    1.49106    0    5    1.49630    1.49106  0.35%     -    7s
     0     0    1.49586    0    4    1.49630    1.49586  0.03%     -    7s
     0     0    1.49586    0    4    1.49630    1.49586  0.03%     -    7s
     0     0    1.49586    0    5    1.49630    1.49586  0.03%     -    7s
     0     0 infeasible    0         1.49630    1.49630  0.00%     -    7s

Cutting planes:
  Gomory: 2
  Cover: 4
  Implied bound: 1
  MIR: 5
  Flow cover: 6
  Flow path: 1
  Network: 3

Explored 1 nodes (18450 simplex iterations) in 7.16 seconds (7.27 work units)
Thread count was 18 (of 18 available processors)

Solution count 6: 1.4963 1.50088 1.50402 ... 10.9711

Optimal solution found (tolerance 1.00e-04)
Best objective 1.496299098720e+00, best bound 1.496299098720e+00, gap 0.0000%
